; SpeckDL: FederatedMeetup — Z3 Verification
; Generated by speckl-compile Z3 backend
; Bounded model checking depth: 10

(set-logic ALL)
(set-option :produce-models true)
(declare-fun speckl_len_Int ( (Array Int Int) ) Int)
(declare-sort StringList 0)
(declare-sort EventRecord 0)
(declare-sort BranchInfo 0)
(declare-sort EquivocationEvidence 0)
(declare-sort CustodyDeclaration 0)

; --- State Variables ---
(declare-const branch_id Int)
(declare-const group_name String)
(declare-const stewards StringList)
(declare-const threshold Int)
(declare-const members StringList)
(declare-const events (Array String EventRecord))
(declare-const branches (Array Int BranchInfo))
(declare-const equivocation_log (Array Int EquivocationEvidence))
(declare-const custody (Array String CustodyDeclaration))

; --- Invariants ---
(define-fun constraint_0 () Bool
  (and
    len(>= (stewards) threshold)
  )
)
(define-fun constraint_1 () Bool
  (and
    (>= threshold 1)
  )
)
(define-fun constraint_2 () Bool
  (and
    ((=> true true))
  )
)
(define-fun constraint_3 () Bool
  (and
    (forall ((s Int)) (> len(s) 0))
  )
)
(define-fun constraint_4 () Bool
  (and
    (forall ((e Int)) (or not e_cancelled len(= (e_rsvps) 0)))
  )
)
(define-fun constraint_5 () Bool
  (and
    equivocation_log has unique entries by (signer, branch_id, hlc)
  )
)
